4 100 2147
10 6 10 6 9 8 9 6 9 10
3 4 4 3
1 6 9
3 6 3 7
9 9 8 2
7 8 7
0 40.0 50.0 0.0 0.0 0 1236
2 45.0 68.0 90.0 10.0 0 1127 50 0 0 0 0 0 1 0 0 0 0
3 45.0 70.0 90.0 30.0 0 1125 30 0 0 0 0 1 0 0 0 0 0
4 42.0 66.0 90.0 10.0 0 1129 75 0 0 1 0 0 0 0 0 0 0
5 42.0 68.0 90.0 10.0 727 782 27 0 0 0 0 0 1 0 0 0 0
6 42.0 65.0 90.0 10.0 0 1130 29 0 0 0 1 0 0 0 1 1 0
7 40.0 69.0 90.0 20.0 621 702 67 0 0 1 0 0 0 1 1 0 0
8 40.0 66.0 90.0 20.0 0 1130 29 0 0 0 1 0 0 0 0 0 0
9 38.0 68.0 90.0 20.0 255 324 32 0 0 0 0 0 1 0 0 0 0
10 38.0 70.0 90.0 10.0 534 605 26 0 0 0 1 0 0 0 0 0 1
11 35.0 66.0 90.0 10.0 357 410 2 0 1 0 1 0 0 0 0 0 0
12 35.0 69.0 90.0 10.0 448 505 41 0 0 1 1 1 0 0 0 0 0
13 25.0 85.0 90.0 20.0 0 1107 7 0 0 0 0 1 0 1 0 0 0
14 22.0 75.0 90.0 30.0 30 92 19 1 1 0 0 0 0 0 0 0 0
15 22.0 85.0 90.0 10.0 567 620 22 0 0 0 1 0 0 0 0 0 1
16 20.0 80.0 90.0 40.0 384 429 72 0 0 0 0 0 0 0 0 1 0
17 20.0 85.0 90.0 40.0 475 528 46 0 0 1 0 0 1 0 0 0 0
18 18.0 75.0 90.0 20.0 99 148 97 0 0 1 0 0 0 0 0 0 1
19 15.0 75.0 90.0 20.0 179 254 8 1 0 0 0 0 0 1 0 1 1
20 15.0 80.0 90.0 10.0 278 345 33 0 0 0 0 0 0 0 1 0 0
21 30.0 50.0 90.0 10.0 10 73 79 1 0 0 0 1 0 1 0 0 0
22 30.0 52.0 90.0 20.0 0 1135 87 0 0 0 0 0 1 0 0 0 0
23 28.0 52.0 90.0 20.0 812 883 92 1 1 0 0 0 0 1 0 0 0
24 28.0 55.0 90.0 10.0 732 777 85 0 0 0 0 0 0 0 0 0 1
25 25.0 50.0 90.0 10.0 65 144 80 0 0 0 0 0 1 0 0 0 0
26 25.0 52.0 90.0 40.0 169 224 41 0 0 0 0 0 1 0 0 0 1
27 25.0 55.0 90.0 10.0 0 1130 52 0 0 0 0 0 0 1 0 1 0
28 23.0 52.0 90.0 10.0 261 316 97 0 0 0 0 0 1 0 0 0 0
29 23.0 55.0 90.0 20.0 546 593 97 0 1 0 0 0 0 1 0 1 0
30 20.0 50.0 90.0 10.0 358 405 73 1 0 0 0 1 1 0 0 0 1
31 20.0 55.0 90.0 10.0 449 504 35 0 0 0 0 0 0 0 1 1 1
32 10.0 35.0 90.0 20.0 0 1112 85 0 0 0 0 0 1 0 0 0 1
33 10.0 40.0 90.0 30.0 31 100 24 0 0 0 0 0 1 0 0 0 0
34 8.0 40.0 90.0 40.0 87 158 27 0 0 1 1 0 1 0 1 0 0
35 8.0 45.0 90.0 20.0 0 1113 71 0 0 0 0 0 0 0 0 0 1
36 5.0 35.0 90.0 10.0 283 344 54 0 0 0 0 1 0 0 0 0 0
37 5.0 45.0 90.0 10.0 665 716 37 0 0 0 0 0 1 0 0 0 0
38 2.0 40.0 90.0 20.0 0 1106 75 0 0 0 0 0 0 0 1 0 0
39 0.0 40.0 90.0 30.0 479 522 4 0 0 0 0 0 1 0 0 0 0
40 0.0 45.0 90.0 20.0 567 624 82 0 0 0 0 0 1 0 0 0 0
41 35.0 30.0 90.0 10.0 264 321 72 1 0 0 0 1 0 1 0 1 0
42 35.0 32.0 90.0 10.0 166 235 41 0 0 1 1 0 0 0 0 1 0
43 33.0 32.0 90.0 20.0 68 149 18 0 0 0 0 0 0 1 0 0 0
44 33.0 35.0 90.0 10.0 16 80 84 0 0 0 0 0 1 0 0 0 0
45 32.0 30.0 90.0 10.0 359 412 57 1 1 0 0 1 0 0 1 0 0
46 30.0 30.0 90.0 10.0 541 600 12 0 0 0 0 0 0 0 0 1 0
47 30.0 32.0 90.0 30.0 448 509 25 0 0 1 0 0 0 0 0 0 1
48 30.0 35.0 90.0 10.0 1054 1127 58 0 0 0 0 0 1 0 0 0 0
49 28.0 30.0 90.0 10.0 0 1122 42 0 0 0 0 0 1 0 0 0 0
50 28.0 35.0 90.0 10.0 1001 1066 57 0 0 0 0 1 0 1 0 0 0
51 26.0 32.0 90.0 10.0 0 1123 92 0 0 0 1 1 1 0 0 0 0
52 25.0 30.0 90.0 10.0 725 786 79 1 1 1 0 0 0 0 0 0 0
53 25.0 35.0 90.0 10.0 0 1124 63 0 0 1 0 0 0 0 0 0 1
54 44.0 5.0 90.0 20.0 286 347 66 1 0 0 0 0 1 1 0 1 0
55 42.0 10.0 90.0 40.0 186 257 99 0 0 0 0 1 0 0 0 0 0
56 42.0 15.0 90.0 10.0 95 158 66 1 0 0 1 0 0 0 0 0 0
57 40.0 5.0 90.0 30.0 385 436 39 0 0 0 1 1 0 1 0 1 0
58 40.0 15.0 90.0 40.0 35 87 87 0 0 1 0 0 0 0 0 0 0
59 38.0 5.0 90.0 30.0 471 534 38 0 0 1 0 0 0 0 0 0 1
60 38.0 15.0 90.0 10.0 0 1110 34 0 0 0 0 0 0 0 1 1 0
61 35.0 5.0 90.0 20.0 562 629 35 0 0 0 0 0 0 0 0 0 1
62 50.0 30.0 90.0 10.0 531 610 33 1 0 0 1 0 0 0 1 0 0
63 50.0 35.0 90.0 20.0 262 317 11 0 0 0 0 1 0 0 0 0 0
64 50.0 40.0 90.0 50.0 171 218 72 0 0 0 0 0 1 0 0 1 0
65 48.0 30.0 90.0 10.0 632 693 66 0 1 0 0 0 0 0 1 0 0
66 48.0 40.0 90.0 10.0 76 129 30 0 0 1 0 0 0 0 0 0 0
67 47.0 35.0 90.0 10.0 826 875 91 1 0 0 0 0 1 0 0 0 0
68 47.0 40.0 90.0 10.0 12 77 67 0 0 0 0 0 1 0 0 0 1
69 45.0 30.0 90.0 10.0 734 777 85 1 0 0 0 1 0 0 1 0 1
70 45.0 35.0 90.0 10.0 916 969 82 0 1 1 0 1 0 0 0 0 1
71 95.0 30.0 90.0 30.0 387 456 67 0 0 0 0 0 1 0 1 0 0
72 95.0 35.0 90.0 20.0 293 360 8 1 0 0 0 0 0 0 0 1 0
73 53.0 30.0 90.0 10.0 0 1122 4 0 0 0 0 0 0 1 0 0 0
74 92.0 30.0 90.0 10.0 478 551 59 1 0 0 0 1 0 1 0 0 0
75 53.0 35.0 90.0 50.0 353 412 38 0 1 0 0 1 0 0 0 0 1
76 45.0 65.0 90.0 20.0 0 1130 68 0 0 0 0 0 1 0 0 0 0
77 90.0 35.0 90.0 10.0 203 260 80 0 0 0 0 1 0 1 1 0 0
78 88.0 30.0 90.0 10.0 574 643 37 1 0 0 0 0 0 0 0 0 0
79 88.0 35.0 90.0 20.0 109 170 27 1 0 0 0 0 0 1 0 0 0
80 87.0 30.0 90.0 10.0 668 731 71 0 0 0 1 0 0 0 0 0 1
81 85.0 25.0 90.0 10.0 769 820 55 1 0 0 0 0 1 0 0 0 0
82 85.0 35.0 90.0 30.0 47 124 36 0 0 0 0 0 1 0 0 0 0
83 75.0 55.0 90.0 20.0 0 1110 13 1 0 0 0 1 0 0 0 1 0
84 72.0 55.0 90.0 10.0 0 1113 99 0 0 0 1 1 1 1 0 1 0
85 70.0 58.0 90.0 20.0 458 523 63 0 0 0 0 0 1 0 0 0 0
86 68.0 60.0 90.0 30.0 0 1116 42 1 1 0 0 0 1 0 0 0 1
87 66.0 55.0 90.0 10.0 173 238 41 0 0 0 0 0 0 0 0 1 0
88 65.0 55.0 90.0 20.0 85 144 2 0 0 0 0 0 1 0 0 0 0
89 65.0 60.0 90.0 30.0 645 708 84 0 0 0 0 1 0 0 0 0 0
90 63.0 58.0 90.0 10.0 737 802 82 0 0 0 0 0 1 0 0 0 0
91 60.0 55.0 90.0 10.0 20 84 29 0 0 0 1 1 0 1 0 0 0
92 60.0 60.0 90.0 10.0 0 1123 99 0 0 0 0 0 1 0 0 0 0
93 67.0 85.0 90.0 20.0 368 441 2 0 0 0 0 0 1 0 0 0 0
94 65.0 85.0 90.0 40.0 475 518 11 1 0 0 1 0 0 0 0 0 0
95 65.0 82.0 90.0 10.0 0 1105 4 0 0 0 0 1 0 1 0 1 0
96 62.0 80.0 90.0 30.0 0 1108 84 0 0 0 1 0 0 0 0 0 1
97 60.0 80.0 90.0 10.0 0 1109 23 0 0 0 0 0 0 1 0 0 0
98 60.0 85.0 90.0 30.0 561 622 27 0 0 1 0 1 0 0 1 0 0
99 58.0 75.0 90.0 20.0 0 1115 2 1 0 1 0 0 0 0 1 0 0
100 55.0 80.0 90.0 10.0 743 820 73 0 0 0 1 0 0 0 0 0 0
101 55.0 85.0 90.0 20.0 647 726 41 0 1 0 0 0 0 0 0 1 1